211 4100
 2 3 4 5 6 7 8 9 10 11 12 13 14 15 16 33 36 41 43 45 47 48 51 54 56 57 59 60 61 62 63 64 65 66 67 68 69 70 71 72 73 74 75 76 77 78 79 80 81 83 84 86 87 88 90 92 95 97 103 106 113 114 121 124 126 129 132 134 135 140 141 142 145 146 149 159 160 161 162 163 164 166 172 174 175 176 177 178 179 180 181 182 183 184 190 191 193 195 197 198 199 200 201 202 203 206 207 208 211
 3 4 5 6 7 8 9 10 11 12 13 14 15 16 33 36 41 43 45 47 48 51 54 56 57 59 60 61 62 63 64 65 66 67 68 69 70 71 72 73 74 75 76 77 78 79 80 81 83 84 86 87 88 90 92 95 97 103 106 113 114 121 124 126 129 132 134 135 140 141 142 145 146 149 159 160 161 162 163 164 166 172 174 175 176 177 178 179 180 181 182 183 184 190 191 193 195 197 198 199 200 201 202 203 206 207 208 211
 4 5 6 7 8 9 10 11 12 13 14 15 16 33 36 41 43 45 47 48 51 54 56 57 59 60 61 62 63 64 65 66 67 68 69 70 71 72 73 74 75 76 77 78 79 80 81 83 84 86 87 88 90 92 95 97 103 106 113 114 121 124 126 129 132 134 135 140 141 142 145 146 149 159 160 161 162 163 164 166 172 174 175 176 177 178 179 180 181 182 183 184 190 191 193 195 197 198 199 200 201 202 203 206 207 208 211
 5 6 7 8 9 10 11 12 13 14 15 16 33 36 41 43 45 47 48 51 54 56 57 59 60 61 62 71 72 73 74 75 76 77 78 79 81 84 88 90 92 95 97 106 113 114 121 124 126 129 132 134 135 140 141 142 145 146 149 159 160 161 162 163 164 166 172 174 175 176 177 178 179 180 181 182 183 184 190 191 193 195 197 198 199 200 201 202 203 206 207 208 211
 6 7 8 9 10 11 12 13 14 15 16 33 36 41 43 45 47 48 51 54 56 57 59 60 61 62 63 71 72 73 74 75 76 77 78 79 81 84 88 90 92 95 97 106 113 114 121 124 126 129 132 134 135 140 141 142 145 146 149 159 160 161 162 163 164 166 172 174 175 176 177 178 179 180 181 182 183 184 190 191 193 195 197 198 199 200 201 202 203 206 207 208 211
 7 8 9 10 11 12 13 14 15 16 33 36 41 43 45 47 48 51 54 56 57 59 60 61 62 63 64 71 72 73 74 75 76 77 78 79 81 84 88 90 92 95 97 106 113 114 121 124 126 129 132 134 135 140 141 142 145 146 149 159 160 161 162 163 164 166 172 174 175 176 177 178 179 180 181 182 183 184 190 191 193 195 197 198 199 200 201 202 203 206 207 208 211
 8 9 10 11 12 13 14 15 16 33 36 41 43 45 47 48 51 54 56 57 59 60 61 62 63 64 65 71 72 73 74 75 76 77 78 79 81 84 88 90 92 95 97 106 113 114 121 124 126 129 132 134 135 140 141 142 145 146 149 159 160 161 162 163 164 166 172 174 175 176 177 178 179 180 181 182 183 184 190 191 193 195 197 198 199 200 201 202 203 206 207 208 211
 9 10 11 12 13 14 15 16 33 36 41 43 45 47 48 51 54 56 57 59 60 61 62 63 64 65 66 71 72 73 74 75 76 77 78 79 81 84 88 90 92 95 97 106 113 114 121 124 126 129 132 134 135 140 141 142 145 146 149 159 160 161 162 163 164 166 172 174 175 176 177 178 179 180 181 182 183 184 190 191 193 195 197 198 199 200 201 202 203 206 207 208 211
 10 11 12 13 14 15 16 33 36 41 43 45 47 48 51 54 56 57 59 60 61 62 63 64 65 66 67 71 72 73 74 75 76 77 78 79 81 84 88 90 92 95 97 106 113 114 121 124 126 129 132 134 135 140 141 142 145 146 149 159 160 161 162 163 164 166 172 174 175 176 177 178 179 180 181 182 183 184 190 191 193 195 197 198 199 200 201 202 203 206 207 208 211
 11 12 13 14 15 16 33 36 41 43 45 47 48 51 54 56 57 59 60 61 62 63 64 65 66 67 68 71 72 73 74 75 76 77 78 79 81 84 88 90 92 95 97 106 113 114 121 124 126 129 132 134 135 140 141 142 145 146 149 159 160 161 162 163 164 166 172 174 175 176 177 178 179 180 181 182 183 184 190 191 193 195 197 198 199 200 201 202 203 206 207 208 211
 12 13 14 15 16 33 36 41 43 45 47 48 51 54 56 57 59 60 61 62 63 64 65 66 67 68 69 70 71 72 73 74 75 76 77 78 79 80 81 83 84 86 87 88 90 92 95 97 103 106 113 114 121 124 126 129 132 134 135 140 141 142 145 146 149 159 160 161 162 163 164 166 172 174 175 176 177 178 179 180 181 182 183 184 190 191 193 195 197 198 199 200 201 202 203 206 207 208 211
 13 14 15 16 33 36 41 43 45 47 48 51 54 56 57 59 60 61 62 63 64 65 66 67 68 69 70 71 72 73 74 75 76 77 78 79 80 81 83 84 86 87 88 90 92 95 97 103 106 113 114 121 124 126 129 132 134 135 140 141 142 145 146 149 159 160 161 162 163 164 166 172 174 175 176 177 178 179 180 181 182 183 184 190 191 193 195 197 198 199 200 201 202 203 206 207 208 211
 14 15 16 33 36 41 43 45 47 48 51 54 56 57 59 60 61 62 63 64 65 66 67 68 69 70 71 72 73 74 75 76 77 78 79 80 81 83 84 86 87 88 90 92 95 97 103 106 113 114 121 124 126 129 132 134 135 140 141 142 145 146 149 159 160 161 162 163 164 166 172 174 175 176 177 178 179 180 181 182 183 184 190 191 193 195 197 198 199 200 201 202 203 206 207 208 211
 15 16 33 36 41 43 45 47 48 51 54 56 57 59 60 61 62 63 64 65 66 67 68 69 70 71 72 73 74 75 76 77 78 79 80 81 83 84 86 87 88 90 92 95 97 103 106 113 114 121 124 126 129 132 134 135 140 141 142 145 146 149 159 160 161 162 163 164 166 172 174 175 176 177 178 179 180 181 182 183 184 190 191 193 195 197 198 199 200 201 202 203 206 207 208 211
 16 33 36 41 43 45 47 48 51 54 56 57 59 60 61 62 63 64 65 66 67 68 69 70 71 72 73 74 75 76 77 78 79 80 81 83 84 86 87 88 90 92 95 97 103 106 113 114 121 124 126 129 132 134 135 140 141 142 145 146 149 159 160 161 162 163 164 166 172 174 175 176 177 178 179 180 181 182 183 184 190 191 193 195 197 198 199 200 201 202 203 206 207 208 211
 33 36 41 43 45 47 48 51 54 56 57 59 60 61 62 63 64 65 66 67 68 69 70 71 72 73 74 75 76 77 78 79 80 81 83 84 86 87 88 90 92 95 97 103 106 113 114 121 124 126 129 132 134 135 140 141 142 145 146 149 159 160 161 162 163 164 166 172 174 175 176 177 178 179 180 181 182 183 184 190 191 193 195 197 198 199 200 201 202 203 206 207 208 211
 18 19 20 21 22 23 24 25 26 27 28 29 30 31 32 33 36 41 43 45 47 48 51 54 56 57 59 60 61 62 63 64 65 66 67 68 69 70 71 72 73 74 75 76 77 78 79 80 81 83 84 86 87 88 90 92 95 97 103 106 113 114 121 124 126 129 132 134 135 140 141 142 145 146 149 159 160 161 162 163 164 166 172 174 175 176 177 178 179 180 181 182 183 184 190 191 193 195 197 198 199 200 201 202 203 206 207 208 211
 19 20 21 22 23 24 25 26 27 28 29 30 31 32 63 64 65 66 67 68 69 70 80 83 86 87 103
 20 21 22 23 24 25 26 27 28 29 30 31 32 63 64 65 66 67 68 69 70 71 80 83 86 87 103
 21 22 23 24 25 26 27 28 29 30 31 32 63 64 65 66 67 68 69 70 71 72 80 83 86 87 103
 22 23 24 25 26 27 28 29 30 31 32 63 64 65 66 67 68 69 70 71 72 73 80 83 86 87 103
 23 24 25 26 27 28 29 30 31 32 63 64 65 66 67 68 69 70 71 72 73 74 80 83 86 87 103
 24 25 26 27 28 29 30 31 32 63 64 65 66 67 68 69 70 71 72 73 74 75 80 83 86 87 103
 25 26 27 28 29 30 31 32 63 64 65 66 67 68 69 70 71 72 73 74 75 76 80 83 86 87 103
 26 27 28 29 30 31 32 63 64 65 66 67 68 69 70 71 72 73 74 75 76 77 80 83 86 87 103
 27 28 29 30 31 32 63 64 65 66 67 68 69 70 71 72 73 74 75 76 77 78 80 83 86 87 103
 28 29 30 31 32 33 36 41 43 45 47 48 51 54 56 57 59 60 61 62 63 64 65 66 67 68 69 70 71 72 73 74 75 76 77 78 79 80 81 83 84 86 87 88 90 92 103 106 113 114 121 124 126 129 132 134 135 140 141 142 145 146 149 159 160 161 162 163 164 166 172 174 175 176 177 178 179 180 181 182 183 184 190 191 193 195 197 198 199 200 201 202 203 206 207 208 211
 29 30 31 32 33 36 41 43 45 47 48 54 59 63 64 65 66 67 68 69 70 71 72 73 74 75 76 77 78 79 80 81 83 84 86 87 88 90 92 103 106 140
 30 31 32 33 36 41 43 45 47 48 54 59 63 64 65 66 67 68 69 70 71 72 73 74 75 76 77 78 79 80 81 83 84 86 87 88 90 92 103 106 140
 31 32 33 36 41 43 45 47 48 54 59 63 64 65 66 67 68 69 70 71 72 73 74 75 76 77 78 79 80 81 83 84 86 87 88 90 92 103 106 140
 32 33 36 41 43 45 47 48 54 59 63 64 65 66 67 68 69 70 71 72 73 74 75 76 77 78 79 80 81 83 84 86 87 88 90 92 103 106 140
 33 36 41 43 45 47 48 54 59 63 64 65 66 67 68 69 70 71 72 73 74 75 76 77 78 79 80 81 83 84 86 87 88 90 92 103 106 140
 36 41 43 45 47 48 51 54 59 60 61 62 71 72 73 74 75 76 77 78 79 81 84 88 90 92 106 113 114 121 124 126 129 132 134 135 140 141 142 145 146 149 159 160 161 162 163 211


 41 43 45 47 48 51 54 56 57 59 60 61 62 71 72 73 74 75 76 77 78 79 81 84 88 90 92 106 113 114 121 124 126 129 132 134 135 140 141 142 145 146 149 159 160 161 162 163 164 166 172 174 175 176 177 178 179 180 181 182 183 184 190 191 193 195 197 198 199 200 201 202 203 206 207 208 211




 43 45 48 51 54 56 57 59 60 61 62 71 72 73 74 75 76 77 78 79 81 84 88 90 92 106 113 114 121 124 126 129 132 134 135 140 141 142 145 146 149 159 160 161 162 163 164 166 172 174 175 176 177 178 179 180 181 182 183 184 190 191 193 195 197 198 199 200 201 202 203 206 207 208 211

 45 48 51 54 56 57 59 60 61 62 71 72 73 74 75 76 77 78 79 81 84 88 90 92 106 113 114 121 124 126 129 132 134 135 140 141 142 145 146 149 159 160 161 162 163 164 166 172 174 175 176 177 178 179 180 181 182 183 184 190 191 193 195 197 198 199 200 201 202 203 206 207 208 211

 48 51 54 56 57 59 60 61 62 71 72 73 74 75 76 77 78 79 81 84 88 90 92 106 113 114 121 124 126 129 132 134 135 140 141 142 145 146 149 159 160 161 162 163 164 166 172 174 175 176 177 178 179 180 190 191 193 195 197 198 199 200 201 202 203 206 207 208 211

 48 51 71 72 73 74 75 76 77 78 79 81 84 88 90 92 95 97
 51 54 59 60 61 62 71 72 73 74 75 76 77 78 79 81 84 88 90 92 106 113 114 121 124 126 129 132 134 135 140 141 142 145 146 149 159 160 161 162 163 190 191 193 211


 54 56 57 59 60 61 62 71 72 73 74 75 76 77 78 79 81 84 88 90 92 106 113 114 121 124 126 129 132 134 135 140 141 142 149 159 160 161 162 163 164 166 172 174 175 176 177 178 179 180 181 182 183 184 190 191 193 195 197 198 199 200 201 202 203 206 207 208 211


 56 57 59 60 61 62 71 72 73 74 75 76 77 78 79 81 84 88 90 92 106 113 114 121 124 126 129 132 134 135 140 141 142 145 146 149 159 160 161 162 163 164 166 172 174 175 176 177 178 179 180 181 182 183 184 190 191 193 195 197 198 199 200 201 202 203 206 207 208 211

 57 59 62 71 72 73 74 75 76 77 78 79 81 84 88 90 92 106 124 132 140 162 164 191 195 201 206 207 208
 59 62 71 72 73 74 75 76 77 78 79 81 84 88 90 92 106 124 132 140 162 172 174 175 176 177 178 179 180 181 182 183 184

 62 71 72 73 74 75 76 77 78 79 81 84 88 90 92 106 113 124 132 140 141 142 145 146 149 159 160 161 162 163 164 166 172 174 175 176 177 178 179 180 181 182 183 184 190 191 193 195 197 198 199 200 201 202 203 206 207 208
 61 71 72 73 74 75 76 77 78 79 81 84 88 90 92 106 124 126
 62 71 72 73 74 75 76 77 78 79 81 84 88 90 92 106 124 126 129
 71 72 73 74 75 76 77 78 79 81 84 88 90 92 106 124 129 132 134 135 140 141 142 145 146 159 160 161 162 163 164 166 172 174 175 176 177 178 179 180 181 182 183 184 190 191 193 195 197 198 199 200 201 202 203 206 207 208
 64 65 66 67 68 69 70 80 83 86 87 103
 65 66 67 68 69 70 80 83 86 87 103
 66 67 68 69 70 80 83 86 87 103
 67 68 69 70 80 83 86 87 103
 68 69 70 80 83 86 87 103
 69 70 80 83 86 87 103
 70 80 83 86 87 103
 80 83 86 87 103
 72 73 74 75 76 77 78 79 81 84 88 90 92 95 97 106 113 114 121 124 126 129 132 134 135 140 141 142 145 146 149 159 160 161 162 163 164 166 172 174 175 176 177 178 179 180 181 182 183 184 190 191 193 195 197 198 199 200 201 202 203 206 207 208 211
 73 74 75 76 77 78 79 81 84 88 90 92 95 97 106 113 114 121 124 126 129 132 134 135 140 141 142 145 146 149 159 160 161 162 163 164 166 172 174 175 176 177 178 179 180 181 182 183 184 190 191 193 195 197 198 199 200 201 202 203 206 207 208 211
 74 75 76 77 78 79 81 84 88 90 92 95 97 106 113 114 121 124 126 129 132 134 135 140 141 142 145 146 149 159 160 161 162 163 164 166 172 174 175 176 177 178 179 180 181 182 183 184 190 191 193 195 197 198 199 200 201 202 203 206 207 208 211
 75 76 77 78 79 81 84 88 90 92 95 97 106 113 114 121 124 126 129 132 134 135 140 141 142 145 146 149 159 160 161 162 163 164 166 172 174 175 176 177 178 179 180 181 182 183 184 190 191 193 195 197 198 199 200 201 202 203 206 207 208 211
 76 77 78 79 81 84 88 90 92 95 97 106 113 114 121 124 126 129 132 134 135 140 141 142 145 146 149 159 160 161 162 163 164 166 172 174 175 176 177 178 179 180 181 182 183 184 190 191 193 195 197 198 199 200 201 202 203 206 207 208 211
 77 78 79 81 84 88 90 92 95 97 106 113 114 121 124 126 129 132 134 135 140 141 142 145 146 149 159 160 161 162 163 164 166 172 174 175 176 177 178 179 180 181 182 183 184 190 191 193 195 197 198 199 200 201 202 203 206 207 208 211
 78 79 81 84 88 90 92 95 97 106 113 114 121 124 126 129 132 134 135 140 141 142 145 146 149 159 160 161 162 163 164 166 172 174 175 176 177 178 179 180 181 182 183 184 190 191 193 195 197 198 199 200 201 202 203 206 207 208 211
 79 81 84 88 90 92 95 97 106 113 114 121 124 126 129 132 134 135 140 141 142 145 146 149 159 160 161 162 163 164 166 172 174 175 176 177 178 179 180 181 182 183 184 190 191 193 195 197 198 199 200 201 202 203 206 207 208 211
 81 84 88 90 92 95 97 106 113 114 121 124 126 129 132 134 135 140 141 142 145 146 149 159 160 161 162 163 164 166 172 174 175 176 177 178 179 180 181 182 183 184 190 191 193 195 197 198 199 200 201 202 203 206 207 208 211
 83 86 87 103
 84 88 90 92 95 97 106 113 114 121 124 126 129 132 134 135 140 141 142 145 146 149 159 160 161 162 163 164 166 172 174 175 176 177 178 179 180 181 182 183 184 190 191 193 195 197 198 199 200 201 202 203 206 207 208 211

 86 87 103
 88 90 92 95 97 106 113 114 121 124 126 129 132 134 135 140 141 142 145 146 149 159 160 161 162 163 164 166 172 174 175 176 177 178 179 180 181 182 183 184 190 191 193 195 197 198 199 200 201 202 203 206 207 208 211

 87 103
 103
 90 92 95 97 106 113 114 121 124 126 129 132 134 135 140 141 142 145 146 149 159 160 161 162 163 164 166 172 174 175 176 177 178 179 180 181 182 183 184 190 191 193 195 197 198 199 200 201 202 203 206 207 208 211

 92 95 97 106 113 114 121 124 126 129 132 134 135 140 141 142 145 146 149 159 160 161 162 163 164 166 172 174 175 176 177 178 179 180 181 182 183 184 190 191 193 195 197 198 199 200 201 202 203 206 207 208 211

 95 97 106 113 114 121 124 126 129 132 134 135 140 141 142 145 146 149 159 160 161 162 163 164 166 172 174 175 176 177 178 179 180 181 182 183 184 190 191 193 195 197 198 199 200 201 202 203 206 207 208 211













 113 114 121 124 126 129 132 134 135 140 141 142 145 146 149 159 160 161 162 163 164 166 172 174 175 176 177 178 179 180 181 182 183 184 190 191 193 195 197 198 199 200 201 202 203 206 207 208 211

















 126 129 132 134 135 140 141 142 159 160 161 162 163 164 166 172 174 175 176 177 178 179 180 190 191 193 195 197 198 199 200 201 202 203 206 207 208







 134 135 140 141 142 145 146 159 160 161 162 163 164 166 172 174 175 176 177 178 179 180 181 182 183 184 190 191 193 195 197 198 199 200 201 202 203 206 207 208







 141 142 145 146 159 160 161 162 163 164 166 172 174 175 176 177 178 179 180 181 182 183 184 190 191 193 195 197 198 199 200 201 202 203 206 207 208


















 160


 163 164 166 172 174 190 191 193 195 197 198 199 200 201 202 203 206 207 208

 166







 174 175 176 177 178 179 180 181 182 183 184

 175 176 177 178 179

 177 178













 191 193 195 197 198 199 200 201
 193 195 197 198 199 200 201 202 203

 195 197 198 199 200

 197 198 199 200 201 202 203 206 207


 199

 201 202
 202 203 206





 208




